n = 10; 

m= 10; 

																							
46	38	8	7	18	63	29	21	52	2
57	26	5	33	24	62	31	6	31	48
48	37	64	8	21	29	38	39	14	18
15	49	27	60	18	48	14	35	48	37
47	35	36	2	31	30	15	29	39	63
29	20	37	8	24	42	35	18	23	31
33	9	9	3	45	43	51	6	57	58
2	21	55	5	63	33	39	63	11	41
19	57	7	36	62	58	59	62	5	60
48	37	64	8	21	29	38	39	14	18





	 












 
 


 

 
